(set-logic QF_LRA)
(declare-fun T1 () Real )
(declare-fun T2 () Real )
(declare-fun T3 () Real )
(declare-fun T4 () Real )
(declare-fun T5 () Real )
(declare-fun T6 () Real )
(declare-fun T7 () Real )
(declare-fun T8 () Real )
(declare-fun T9 () Real )
(declare-fun T10 () Real )
(declare-fun Z () Real )
(declare-fun k () Real )
(assert (let
(( $goal (>= Z k) ))
(let
((
$phi ( and 
(or ( <= ( + T1 63 ) T2 ) ( <= ( + T2 1 ) T1 ) )
(or ( <= ( + T1 75 )  ( + T2 1 ) ) ( <= ( + T2 27 )( + T1 63 ) ) )
(or ( <= ( + T1 145 )  ( + T2 27 ) ) ( <= ( + T2 66 )( + T1 75 ) ) )
(or ( <= ( + T1 182 )  ( + T2 66 ) ) ( <= ( + T2 115 )( + T1 145 ) ) )
(or ( <= ( + T1 218 )  ( + T2 115 ) ) ( <= ( + T2 163 )( + T1 182 ) ) )
(or ( <= ( + T1 254 )  ( + T2 163 ) ) ( <= ( + T2 184 )( + T1 218 ) ) )
(or ( <= ( + T1 315 )  ( + T2 184 ) ) ( <= ( + T2 278 )( + T1 254 ) ) )
(or ( <= ( + T1 353 )  ( + T2 278 ) ) ( <= ( + T2 362 )( + T1 315 ) ) )
(or ( <= ( + T1 63 ) T3 ) ( <= ( + T3 25 ) T1 ) )
(or ( <= ( + T1 75 )  ( + T3 25 ) ) ( <= ( + T3 65 )( + T1 63 ) ) )
(or ( <= ( + T1 145 )  ( + T3 65 ) ) ( <= ( + T3 117 )( + T1 75 ) ) )
(or ( <= ( + T1 182 )  ( + T3 117 ) ) ( <= ( + T3 196 )( + T1 145 ) ) )
(or ( <= ( + T1 218 )  ( + T3 196 ) ) ( <= ( + T3 271 )( + T1 182 ) ) )
(or ( <= ( + T1 254 )  ( + T3 271 ) ) ( <= ( + T3 312 )( + T1 218 ) ) )
(or ( <= ( + T1 315 )  ( + T3 312 ) ) ( <= ( + T3 316 )( + T1 254 ) ) )
(or ( <= ( + T1 353 )  ( + T3 316 ) ) ( <= ( + T3 326 )( + T1 315 ) ) )
(or ( <= ( + T1 63 ) T4 ) ( <= ( + T4 15 ) T1 ) )
(or ( <= ( + T1 75 )  ( + T4 15 ) ) ( <= ( + T4 25 )( + T1 63 ) ) )
(or ( <= ( + T1 145 )  ( + T4 25 ) ) ( <= ( + T4 31 )( + T1 75 ) ) )
(or ( <= ( + T1 182 )  ( + T4 31 ) ) ( <= ( + T4 53 )( + T1 145 ) ) )
(or ( <= ( + T1 218 )  ( + T4 53 ) ) ( <= ( + T4 126 )( + T1 182 ) ) )
(or ( <= ( + T1 254 )  ( + T4 126 ) ) ( <= ( + T4 150 )( + T1 218 ) ) )
(or ( <= ( + T1 315 )  ( + T4 150 ) ) ( <= ( + T4 178 )( + T1 254 ) ) )
(or ( <= ( + T1 353 )  ( + T4 178 ) ) ( <= ( + T4 266 )( + T1 315 ) ) )
(or ( <= ( + T1 63 ) T5 ) ( <= ( + T5 35 ) T1 ) )
(or ( <= ( + T1 75 )  ( + T5 35 ) ) ( <= ( + T5 132 )( + T1 63 ) ) )
(or ( <= ( + T1 145 )  ( + T5 132 ) ) ( <= ( + T5 156 )( + T1 75 ) ) )
(or ( <= ( + T1 182 )  ( + T5 156 ) ) ( <= ( + T5 178 )( + T1 145 ) ) )
(or ( <= ( + T1 218 )  ( + T5 178 ) ) ( <= ( + T5 211 )( + T1 182 ) ) )
(or ( <= ( + T1 254 )  ( + T5 211 ) ) ( <= ( + T5 247 )( + T1 218 ) ) )
(or ( <= ( + T1 315 )  ( + T5 247 ) ) ( <= ( + T5 307 )( + T1 254 ) ) )
(or ( <= ( + T1 353 )  ( + T5 307 ) ) ( <= ( + T5 392 )( + T1 315 ) ) )
(or ( <= ( + T1 63 ) T6 ) ( <= ( + T6 13 ) T1 ) )
(or ( <= ( + T1 75 )  ( + T6 13 ) ) ( <= ( + T6 63 )( + T1 63 ) ) )
(or ( <= ( + T1 145 )  ( + T6 63 ) ) ( <= ( + T6 96 )( + T1 75 ) ) )
(or ( <= ( + T1 182 )  ( + T6 96 ) ) ( <= ( + T6 156 )( + T1 145 ) ) )
(or ( <= ( + T1 218 )  ( + T6 156 ) ) ( <= ( + T6 226 )( + T1 182 ) ) )
(or ( <= ( + T1 254 )  ( + T6 226 ) ) ( <= ( + T6 304 )( + T1 218 ) ) )
(or ( <= ( + T1 315 )  ( + T6 304 ) ) ( <= ( + T6 348 )( + T1 254 ) ) )
(or ( <= ( + T1 353 )  ( + T6 348 ) ) ( <= ( + T6 394 )( + T1 315 ) ) )
(or ( <= ( + T1 63 ) T7 ) ( <= ( + T7 18 ) T1 ) )
(or ( <= ( + T1 75 )  ( + T7 18 ) ) ( <= ( + T7 65 )( + T1 63 ) ) )
(or ( <= ( + T1 145 )  ( + T7 65 ) ) ( <= ( + T7 90 )( + T1 75 ) ) )
(or ( <= ( + T1 182 )  ( + T7 90 ) ) ( <= ( + T7 134 )( + T1 145 ) ) )
(or ( <= ( + T1 218 )  ( + T7 134 ) ) ( <= ( + T7 173 )( + T1 182 ) ) )
(or ( <= ( + T1 254 )  ( + T7 173 ) ) ( <= ( + T7 253 )( + T1 218 ) ) )
(or ( <= ( + T1 315 )  ( + T7 253 ) ) ( <= ( + T7 307 )( + T1 254 ) ) )
(or ( <= ( + T1 353 )  ( + T7 307 ) ) ( <= ( + T7 360 )( + T1 315 ) ) )
(or ( <= ( + T1 63 ) T8 ) ( <= ( + T8 41 ) T1 ) )
(or ( <= ( + T1 75 )  ( + T8 41 ) ) ( <= ( + T8 100 )( + T1 63 ) ) )
(or ( <= ( + T1 145 )  ( + T8 100 ) ) ( <= ( + T8 126 )( + T1 75 ) ) )
(or ( <= ( + T1 182 )  ( + T8 126 ) ) ( <= ( + T8 192 )( + T1 145 ) ) )
(or ( <= ( + T1 218 )  ( + T8 192 ) ) ( <= ( + T8 226 )( + T1 182 ) ) )
(or ( <= ( + T1 254 )  ( + T8 226 ) ) ( <= ( + T8 279 )( + T1 218 ) ) )
(or ( <= ( + T1 315 )  ( + T8 279 ) ) ( <= ( + T8 332 )( + T1 254 ) ) )
(or ( <= ( + T1 353 )  ( + T8 332 ) ) ( <= ( + T8 400 )( + T1 315 ) ) )
(or ( <= ( + T1 63 ) T9 ) ( <= ( + T9 2 ) T1 ) )
(or ( <= ( + T1 75 )  ( + T9 2 ) ) ( <= ( + T9 30 )( + T1 63 ) ) )
(or ( <= ( + T1 145 )  ( + T9 30 ) ) ( <= ( + T9 120 )( + T1 75 ) ) )
(or ( <= ( + T1 182 )  ( + T9 120 ) ) ( <= ( + T9 206 )( + T1 145 ) ) )
(or ( <= ( + T1 218 )  ( + T9 206 ) ) ( <= ( + T9 221 )( + T1 182 ) ) )
(or ( <= ( + T1 254 )  ( + T9 221 ) ) ( <= ( + T9 222 )( + T1 218 ) ) )
(or ( <= ( + T1 315 )  ( + T9 222 ) ) ( <= ( + T9 292 )( + T1 254 ) ) )
(or ( <= ( + T1 353 )  ( + T9 292 ) ) ( <= ( + T9 320 )( + T1 315 ) ) )
(or ( <= ( + T1 63 ) T10 ) ( <= ( + T10 50 ) T1 ) )
(or ( <= ( + T1 75 )  ( + T10 50 ) ) ( <= ( + T10 104 )( + T1 63 ) ) )
(or ( <= ( + T1 145 )  ( + T10 104 ) ) ( <= ( + T10 143 )( + T1 75 ) ) )
(or ( <= ( + T1 182 )  ( + T10 143 ) ) ( <= ( + T10 214 )( + T1 145 ) ) )
(or ( <= ( + T1 218 )  ( + T10 214 ) ) ( <= ( + T10 245 )( + T1 182 ) ) )
(or ( <= ( + T1 254 )  ( + T10 245 ) ) ( <= ( + T10 279 )( + T1 218 ) ) )
(or ( <= ( + T1 315 )  ( + T10 279 ) ) ( <= ( + T10 347 )( + T1 254 ) ) )
(or ( <= ( + T1 353 )  ( + T10 347 ) ) ( <= ( + T10 447 )( + T1 315 ) ) )
(or ( <= ( + T2 1 ) T3 ) ( <= ( + T3 25 ) T2 ) )
(or ( <= ( + T2 27 )  ( + T3 25 ) ) ( <= ( + T3 65 )( + T2 1 ) ) )
(or ( <= ( + T2 66 )  ( + T3 65 ) ) ( <= ( + T3 117 )( + T2 27 ) ) )
(or ( <= ( + T2 115 )  ( + T3 117 ) ) ( <= ( + T3 196 )( + T2 66 ) ) )
(or ( <= ( + T2 163 )  ( + T3 196 ) ) ( <= ( + T3 271 )( + T2 115 ) ) )
(or ( <= ( + T2 184 )  ( + T3 271 ) ) ( <= ( + T3 312 )( + T2 163 ) ) )
(or ( <= ( + T2 278 )  ( + T3 312 ) ) ( <= ( + T3 316 )( + T2 184 ) ) )
(or ( <= ( + T2 362 )  ( + T3 316 ) ) ( <= ( + T3 326 )( + T2 278 ) ) )
(or ( <= ( + T2 1 ) T4 ) ( <= ( + T4 15 ) T2 ) )
(or ( <= ( + T2 27 )  ( + T4 15 ) ) ( <= ( + T4 25 )( + T2 1 ) ) )
(or ( <= ( + T2 66 )  ( + T4 25 ) ) ( <= ( + T4 31 )( + T2 27 ) ) )
(or ( <= ( + T2 115 )  ( + T4 31 ) ) ( <= ( + T4 53 )( + T2 66 ) ) )
(or ( <= ( + T2 163 )  ( + T4 53 ) ) ( <= ( + T4 126 )( + T2 115 ) ) )
(or ( <= ( + T2 184 )  ( + T4 126 ) ) ( <= ( + T4 150 )( + T2 163 ) ) )
(or ( <= ( + T2 278 )  ( + T4 150 ) ) ( <= ( + T4 178 )( + T2 184 ) ) )
(or ( <= ( + T2 362 )  ( + T4 178 ) ) ( <= ( + T4 266 )( + T2 278 ) ) )
(or ( <= ( + T2 1 ) T5 ) ( <= ( + T5 35 ) T2 ) )
(or ( <= ( + T2 27 )  ( + T5 35 ) ) ( <= ( + T5 132 )( + T2 1 ) ) )
(or ( <= ( + T2 66 )  ( + T5 132 ) ) ( <= ( + T5 156 )( + T2 27 ) ) )
(or ( <= ( + T2 115 )  ( + T5 156 ) ) ( <= ( + T5 178 )( + T2 66 ) ) )
(or ( <= ( + T2 163 )  ( + T5 178 ) ) ( <= ( + T5 211 )( + T2 115 ) ) )
(or ( <= ( + T2 184 )  ( + T5 211 ) ) ( <= ( + T5 247 )( + T2 163 ) ) )
(or ( <= ( + T2 278 )  ( + T5 247 ) ) ( <= ( + T5 307 )( + T2 184 ) ) )
(or ( <= ( + T2 362 )  ( + T5 307 ) ) ( <= ( + T5 392 )( + T2 278 ) ) )
(or ( <= ( + T2 1 ) T6 ) ( <= ( + T6 13 ) T2 ) )
(or ( <= ( + T2 27 )  ( + T6 13 ) ) ( <= ( + T6 63 )( + T2 1 ) ) )
(or ( <= ( + T2 66 )  ( + T6 63 ) ) ( <= ( + T6 96 )( + T2 27 ) ) )
(or ( <= ( + T2 115 )  ( + T6 96 ) ) ( <= ( + T6 156 )( + T2 66 ) ) )
(or ( <= ( + T2 163 )  ( + T6 156 ) ) ( <= ( + T6 226 )( + T2 115 ) ) )
(or ( <= ( + T2 184 )  ( + T6 226 ) ) ( <= ( + T6 304 )( + T2 163 ) ) )
(or ( <= ( + T2 278 )  ( + T6 304 ) ) ( <= ( + T6 348 )( + T2 184 ) ) )
(or ( <= ( + T2 362 )  ( + T6 348 ) ) ( <= ( + T6 394 )( + T2 278 ) ) )
(or ( <= ( + T2 1 ) T7 ) ( <= ( + T7 18 ) T2 ) )
(or ( <= ( + T2 27 )  ( + T7 18 ) ) ( <= ( + T7 65 )( + T2 1 ) ) )
(or ( <= ( + T2 66 )  ( + T7 65 ) ) ( <= ( + T7 90 )( + T2 27 ) ) )
(or ( <= ( + T2 115 )  ( + T7 90 ) ) ( <= ( + T7 134 )( + T2 66 ) ) )
(or ( <= ( + T2 163 )  ( + T7 134 ) ) ( <= ( + T7 173 )( + T2 115 ) ) )
(or ( <= ( + T2 184 )  ( + T7 173 ) ) ( <= ( + T7 253 )( + T2 163 ) ) )
(or ( <= ( + T2 278 )  ( + T7 253 ) ) ( <= ( + T7 307 )( + T2 184 ) ) )
(or ( <= ( + T2 362 )  ( + T7 307 ) ) ( <= ( + T7 360 )( + T2 278 ) ) )
(or ( <= ( + T2 1 ) T8 ) ( <= ( + T8 41 ) T2 ) )
(or ( <= ( + T2 27 )  ( + T8 41 ) ) ( <= ( + T8 100 )( + T2 1 ) ) )
(or ( <= ( + T2 66 )  ( + T8 100 ) ) ( <= ( + T8 126 )( + T2 27 ) ) )
(or ( <= ( + T2 115 )  ( + T8 126 ) ) ( <= ( + T8 192 )( + T2 66 ) ) )
(or ( <= ( + T2 163 )  ( + T8 192 ) ) ( <= ( + T8 226 )( + T2 115 ) ) )
(or ( <= ( + T2 184 )  ( + T8 226 ) ) ( <= ( + T8 279 )( + T2 163 ) ) )
(or ( <= ( + T2 278 )  ( + T8 279 ) ) ( <= ( + T8 332 )( + T2 184 ) ) )
(or ( <= ( + T2 362 )  ( + T8 332 ) ) ( <= ( + T8 400 )( + T2 278 ) ) )
(or ( <= ( + T2 1 ) T9 ) ( <= ( + T9 2 ) T2 ) )
(or ( <= ( + T2 27 )  ( + T9 2 ) ) ( <= ( + T9 30 )( + T2 1 ) ) )
(or ( <= ( + T2 66 )  ( + T9 30 ) ) ( <= ( + T9 120 )( + T2 27 ) ) )
(or ( <= ( + T2 115 )  ( + T9 120 ) ) ( <= ( + T9 206 )( + T2 66 ) ) )
(or ( <= ( + T2 163 )  ( + T9 206 ) ) ( <= ( + T9 221 )( + T2 115 ) ) )
(or ( <= ( + T2 184 )  ( + T9 221 ) ) ( <= ( + T9 222 )( + T2 163 ) ) )
(or ( <= ( + T2 278 )  ( + T9 222 ) ) ( <= ( + T9 292 )( + T2 184 ) ) )
(or ( <= ( + T2 362 )  ( + T9 292 ) ) ( <= ( + T9 320 )( + T2 278 ) ) )
(or ( <= ( + T2 1 ) T10 ) ( <= ( + T10 50 ) T2 ) )
(or ( <= ( + T2 27 )  ( + T10 50 ) ) ( <= ( + T10 104 )( + T2 1 ) ) )
(or ( <= ( + T2 66 )  ( + T10 104 ) ) ( <= ( + T10 143 )( + T2 27 ) ) )
(or ( <= ( + T2 115 )  ( + T10 143 ) ) ( <= ( + T10 214 )( + T2 66 ) ) )
(or ( <= ( + T2 163 )  ( + T10 214 ) ) ( <= ( + T10 245 )( + T2 115 ) ) )
(or ( <= ( + T2 184 )  ( + T10 245 ) ) ( <= ( + T10 279 )( + T2 163 ) ) )
(or ( <= ( + T2 278 )  ( + T10 279 ) ) ( <= ( + T10 347 )( + T2 184 ) ) )
(or ( <= ( + T2 362 )  ( + T10 347 ) ) ( <= ( + T10 447 )( + T2 278 ) ) )
(or ( <= ( + T3 25 ) T4 ) ( <= ( + T4 15 ) T3 ) )
(or ( <= ( + T3 65 )  ( + T4 15 ) ) ( <= ( + T4 25 )( + T3 25 ) ) )
(or ( <= ( + T3 117 )  ( + T4 25 ) ) ( <= ( + T4 31 )( + T3 65 ) ) )
(or ( <= ( + T3 196 )  ( + T4 31 ) ) ( <= ( + T4 53 )( + T3 117 ) ) )
(or ( <= ( + T3 271 )  ( + T4 53 ) ) ( <= ( + T4 126 )( + T3 196 ) ) )
(or ( <= ( + T3 312 )  ( + T4 126 ) ) ( <= ( + T4 150 )( + T3 271 ) ) )
(or ( <= ( + T3 316 )  ( + T4 150 ) ) ( <= ( + T4 178 )( + T3 312 ) ) )
(or ( <= ( + T3 326 )  ( + T4 178 ) ) ( <= ( + T4 266 )( + T3 316 ) ) )
(or ( <= ( + T3 25 ) T5 ) ( <= ( + T5 35 ) T3 ) )
(or ( <= ( + T3 65 )  ( + T5 35 ) ) ( <= ( + T5 132 )( + T3 25 ) ) )
(or ( <= ( + T3 117 )  ( + T5 132 ) ) ( <= ( + T5 156 )( + T3 65 ) ) )
(or ( <= ( + T3 196 )  ( + T5 156 ) ) ( <= ( + T5 178 )( + T3 117 ) ) )
(or ( <= ( + T3 271 )  ( + T5 178 ) ) ( <= ( + T5 211 )( + T3 196 ) ) )
(or ( <= ( + T3 312 )  ( + T5 211 ) ) ( <= ( + T5 247 )( + T3 271 ) ) )
(or ( <= ( + T3 316 )  ( + T5 247 ) ) ( <= ( + T5 307 )( + T3 312 ) ) )
(or ( <= ( + T3 326 )  ( + T5 307 ) ) ( <= ( + T5 392 )( + T3 316 ) ) )
(or ( <= ( + T3 25 ) T6 ) ( <= ( + T6 13 ) T3 ) )
(or ( <= ( + T3 65 )  ( + T6 13 ) ) ( <= ( + T6 63 )( + T3 25 ) ) )
(or ( <= ( + T3 117 )  ( + T6 63 ) ) ( <= ( + T6 96 )( + T3 65 ) ) )
(or ( <= ( + T3 196 )  ( + T6 96 ) ) ( <= ( + T6 156 )( + T3 117 ) ) )
(or ( <= ( + T3 271 )  ( + T6 156 ) ) ( <= ( + T6 226 )( + T3 196 ) ) )
(or ( <= ( + T3 312 )  ( + T6 226 ) ) ( <= ( + T6 304 )( + T3 271 ) ) )
(or ( <= ( + T3 316 )  ( + T6 304 ) ) ( <= ( + T6 348 )( + T3 312 ) ) )
(or ( <= ( + T3 326 )  ( + T6 348 ) ) ( <= ( + T6 394 )( + T3 316 ) ) )
(or ( <= ( + T3 25 ) T7 ) ( <= ( + T7 18 ) T3 ) )
(or ( <= ( + T3 65 )  ( + T7 18 ) ) ( <= ( + T7 65 )( + T3 25 ) ) )
(or ( <= ( + T3 117 )  ( + T7 65 ) ) ( <= ( + T7 90 )( + T3 65 ) ) )
(or ( <= ( + T3 196 )  ( + T7 90 ) ) ( <= ( + T7 134 )( + T3 117 ) ) )
(or ( <= ( + T3 271 )  ( + T7 134 ) ) ( <= ( + T7 173 )( + T3 196 ) ) )
(or ( <= ( + T3 312 )  ( + T7 173 ) ) ( <= ( + T7 253 )( + T3 271 ) ) )
(or ( <= ( + T3 316 )  ( + T7 253 ) ) ( <= ( + T7 307 )( + T3 312 ) ) )
(or ( <= ( + T3 326 )  ( + T7 307 ) ) ( <= ( + T7 360 )( + T3 316 ) ) )
(or ( <= ( + T3 25 ) T8 ) ( <= ( + T8 41 ) T3 ) )
(or ( <= ( + T3 65 )  ( + T8 41 ) ) ( <= ( + T8 100 )( + T3 25 ) ) )
(or ( <= ( + T3 117 )  ( + T8 100 ) ) ( <= ( + T8 126 )( + T3 65 ) ) )
(or ( <= ( + T3 196 )  ( + T8 126 ) ) ( <= ( + T8 192 )( + T3 117 ) ) )
(or ( <= ( + T3 271 )  ( + T8 192 ) ) ( <= ( + T8 226 )( + T3 196 ) ) )
(or ( <= ( + T3 312 )  ( + T8 226 ) ) ( <= ( + T8 279 )( + T3 271 ) ) )
(or ( <= ( + T3 316 )  ( + T8 279 ) ) ( <= ( + T8 332 )( + T3 312 ) ) )
(or ( <= ( + T3 326 )  ( + T8 332 ) ) ( <= ( + T8 400 )( + T3 316 ) ) )
(or ( <= ( + T3 25 ) T9 ) ( <= ( + T9 2 ) T3 ) )
(or ( <= ( + T3 65 )  ( + T9 2 ) ) ( <= ( + T9 30 )( + T3 25 ) ) )
(or ( <= ( + T3 117 )  ( + T9 30 ) ) ( <= ( + T9 120 )( + T3 65 ) ) )
(or ( <= ( + T3 196 )  ( + T9 120 ) ) ( <= ( + T9 206 )( + T3 117 ) ) )
(or ( <= ( + T3 271 )  ( + T9 206 ) ) ( <= ( + T9 221 )( + T3 196 ) ) )
(or ( <= ( + T3 312 )  ( + T9 221 ) ) ( <= ( + T9 222 )( + T3 271 ) ) )
(or ( <= ( + T3 316 )  ( + T9 222 ) ) ( <= ( + T9 292 )( + T3 312 ) ) )
(or ( <= ( + T3 326 )  ( + T9 292 ) ) ( <= ( + T9 320 )( + T3 316 ) ) )
(or ( <= ( + T3 25 ) T10 ) ( <= ( + T10 50 ) T3 ) )
(or ( <= ( + T3 65 )  ( + T10 50 ) ) ( <= ( + T10 104 )( + T3 25 ) ) )
(or ( <= ( + T3 117 )  ( + T10 104 ) ) ( <= ( + T10 143 )( + T3 65 ) ) )
(or ( <= ( + T3 196 )  ( + T10 143 ) ) ( <= ( + T10 214 )( + T3 117 ) ) )
(or ( <= ( + T3 271 )  ( + T10 214 ) ) ( <= ( + T10 245 )( + T3 196 ) ) )
(or ( <= ( + T3 312 )  ( + T10 245 ) ) ( <= ( + T10 279 )( + T3 271 ) ) )
(or ( <= ( + T3 316 )  ( + T10 279 ) ) ( <= ( + T10 347 )( + T3 312 ) ) )
(or ( <= ( + T3 326 )  ( + T10 347 ) ) ( <= ( + T10 447 )( + T3 316 ) ) )
(or ( <= ( + T4 15 ) T5 ) ( <= ( + T5 35 ) T4 ) )
(or ( <= ( + T4 25 )  ( + T5 35 ) ) ( <= ( + T5 132 )( + T4 15 ) ) )
(or ( <= ( + T4 31 )  ( + T5 132 ) ) ( <= ( + T5 156 )( + T4 25 ) ) )
(or ( <= ( + T4 53 )  ( + T5 156 ) ) ( <= ( + T5 178 )( + T4 31 ) ) )
(or ( <= ( + T4 126 )  ( + T5 178 ) ) ( <= ( + T5 211 )( + T4 53 ) ) )
(or ( <= ( + T4 150 )  ( + T5 211 ) ) ( <= ( + T5 247 )( + T4 126 ) ) )
(or ( <= ( + T4 178 )  ( + T5 247 ) ) ( <= ( + T5 307 )( + T4 150 ) ) )
(or ( <= ( + T4 266 )  ( + T5 307 ) ) ( <= ( + T5 392 )( + T4 178 ) ) )
(or ( <= ( + T4 15 ) T6 ) ( <= ( + T6 13 ) T4 ) )
(or ( <= ( + T4 25 )  ( + T6 13 ) ) ( <= ( + T6 63 )( + T4 15 ) ) )
(or ( <= ( + T4 31 )  ( + T6 63 ) ) ( <= ( + T6 96 )( + T4 25 ) ) )
(or ( <= ( + T4 53 )  ( + T6 96 ) ) ( <= ( + T6 156 )( + T4 31 ) ) )
(or ( <= ( + T4 126 )  ( + T6 156 ) ) ( <= ( + T6 226 )( + T4 53 ) ) )
(or ( <= ( + T4 150 )  ( + T6 226 ) ) ( <= ( + T6 304 )( + T4 126 ) ) )
(or ( <= ( + T4 178 )  ( + T6 304 ) ) ( <= ( + T6 348 )( + T4 150 ) ) )
(or ( <= ( + T4 266 )  ( + T6 348 ) ) ( <= ( + T6 394 )( + T4 178 ) ) )
(or ( <= ( + T4 15 ) T7 ) ( <= ( + T7 18 ) T4 ) )
(or ( <= ( + T4 25 )  ( + T7 18 ) ) ( <= ( + T7 65 )( + T4 15 ) ) )
(or ( <= ( + T4 31 )  ( + T7 65 ) ) ( <= ( + T7 90 )( + T4 25 ) ) )
(or ( <= ( + T4 53 )  ( + T7 90 ) ) ( <= ( + T7 134 )( + T4 31 ) ) )
(or ( <= ( + T4 126 )  ( + T7 134 ) ) ( <= ( + T7 173 )( + T4 53 ) ) )
(or ( <= ( + T4 150 )  ( + T7 173 ) ) ( <= ( + T7 253 )( + T4 126 ) ) )
(or ( <= ( + T4 178 )  ( + T7 253 ) ) ( <= ( + T7 307 )( + T4 150 ) ) )
(or ( <= ( + T4 266 )  ( + T7 307 ) ) ( <= ( + T7 360 )( + T4 178 ) ) )
(or ( <= ( + T4 15 ) T8 ) ( <= ( + T8 41 ) T4 ) )
(or ( <= ( + T4 25 )  ( + T8 41 ) ) ( <= ( + T8 100 )( + T4 15 ) ) )
(or ( <= ( + T4 31 )  ( + T8 100 ) ) ( <= ( + T8 126 )( + T4 25 ) ) )
(or ( <= ( + T4 53 )  ( + T8 126 ) ) ( <= ( + T8 192 )( + T4 31 ) ) )
(or ( <= ( + T4 126 )  ( + T8 192 ) ) ( <= ( + T8 226 )( + T4 53 ) ) )
(or ( <= ( + T4 150 )  ( + T8 226 ) ) ( <= ( + T8 279 )( + T4 126 ) ) )
(or ( <= ( + T4 178 )  ( + T8 279 ) ) ( <= ( + T8 332 )( + T4 150 ) ) )
(or ( <= ( + T4 266 )  ( + T8 332 ) ) ( <= ( + T8 400 )( + T4 178 ) ) )
(or ( <= ( + T4 15 ) T9 ) ( <= ( + T9 2 ) T4 ) )
(or ( <= ( + T4 25 )  ( + T9 2 ) ) ( <= ( + T9 30 )( + T4 15 ) ) )
(or ( <= ( + T4 31 )  ( + T9 30 ) ) ( <= ( + T9 120 )( + T4 25 ) ) )
(or ( <= ( + T4 53 )  ( + T9 120 ) ) ( <= ( + T9 206 )( + T4 31 ) ) )
(or ( <= ( + T4 126 )  ( + T9 206 ) ) ( <= ( + T9 221 )( + T4 53 ) ) )
(or ( <= ( + T4 150 )  ( + T9 221 ) ) ( <= ( + T9 222 )( + T4 126 ) ) )
(or ( <= ( + T4 178 )  ( + T9 222 ) ) ( <= ( + T9 292 )( + T4 150 ) ) )
(or ( <= ( + T4 266 )  ( + T9 292 ) ) ( <= ( + T9 320 )( + T4 178 ) ) )
(or ( <= ( + T4 15 ) T10 ) ( <= ( + T10 50 ) T4 ) )
(or ( <= ( + T4 25 )  ( + T10 50 ) ) ( <= ( + T10 104 )( + T4 15 ) ) )
(or ( <= ( + T4 31 )  ( + T10 104 ) ) ( <= ( + T10 143 )( + T4 25 ) ) )
(or ( <= ( + T4 53 )  ( + T10 143 ) ) ( <= ( + T10 214 )( + T4 31 ) ) )
(or ( <= ( + T4 126 )  ( + T10 214 ) ) ( <= ( + T10 245 )( + T4 53 ) ) )
(or ( <= ( + T4 150 )  ( + T10 245 ) ) ( <= ( + T10 279 )( + T4 126 ) ) )
(or ( <= ( + T4 178 )  ( + T10 279 ) ) ( <= ( + T10 347 )( + T4 150 ) ) )
(or ( <= ( + T4 266 )  ( + T10 347 ) ) ( <= ( + T10 447 )( + T4 178 ) ) )
(or ( <= ( + T5 35 ) T6 ) ( <= ( + T6 13 ) T5 ) )
(or ( <= ( + T5 132 )  ( + T6 13 ) ) ( <= ( + T6 63 )( + T5 35 ) ) )
(or ( <= ( + T5 156 )  ( + T6 63 ) ) ( <= ( + T6 96 )( + T5 132 ) ) )
(or ( <= ( + T5 178 )  ( + T6 96 ) ) ( <= ( + T6 156 )( + T5 156 ) ) )
(or ( <= ( + T5 211 )  ( + T6 156 ) ) ( <= ( + T6 226 )( + T5 178 ) ) )
(or ( <= ( + T5 247 )  ( + T6 226 ) ) ( <= ( + T6 304 )( + T5 211 ) ) )
(or ( <= ( + T5 307 )  ( + T6 304 ) ) ( <= ( + T6 348 )( + T5 247 ) ) )
(or ( <= ( + T5 392 )  ( + T6 348 ) ) ( <= ( + T6 394 )( + T5 307 ) ) )
(or ( <= ( + T5 35 ) T7 ) ( <= ( + T7 18 ) T5 ) )
(or ( <= ( + T5 132 )  ( + T7 18 ) ) ( <= ( + T7 65 )( + T5 35 ) ) )
(or ( <= ( + T5 156 )  ( + T7 65 ) ) ( <= ( + T7 90 )( + T5 132 ) ) )
(or ( <= ( + T5 178 )  ( + T7 90 ) ) ( <= ( + T7 134 )( + T5 156 ) ) )
(or ( <= ( + T5 211 )  ( + T7 134 ) ) ( <= ( + T7 173 )( + T5 178 ) ) )
(or ( <= ( + T5 247 )  ( + T7 173 ) ) ( <= ( + T7 253 )( + T5 211 ) ) )
(or ( <= ( + T5 307 )  ( + T7 253 ) ) ( <= ( + T7 307 )( + T5 247 ) ) )
(or ( <= ( + T5 392 )  ( + T7 307 ) ) ( <= ( + T7 360 )( + T5 307 ) ) )
(or ( <= ( + T5 35 ) T8 ) ( <= ( + T8 41 ) T5 ) )
(or ( <= ( + T5 132 )  ( + T8 41 ) ) ( <= ( + T8 100 )( + T5 35 ) ) )
(or ( <= ( + T5 156 )  ( + T8 100 ) ) ( <= ( + T8 126 )( + T5 132 ) ) )
(or ( <= ( + T5 178 )  ( + T8 126 ) ) ( <= ( + T8 192 )( + T5 156 ) ) )
(or ( <= ( + T5 211 )  ( + T8 192 ) ) ( <= ( + T8 226 )( + T5 178 ) ) )
(or ( <= ( + T5 247 )  ( + T8 226 ) ) ( <= ( + T8 279 )( + T5 211 ) ) )
(or ( <= ( + T5 307 )  ( + T8 279 ) ) ( <= ( + T8 332 )( + T5 247 ) ) )
(or ( <= ( + T5 392 )  ( + T8 332 ) ) ( <= ( + T8 400 )( + T5 307 ) ) )
(or ( <= ( + T5 35 ) T9 ) ( <= ( + T9 2 ) T5 ) )
(or ( <= ( + T5 132 )  ( + T9 2 ) ) ( <= ( + T9 30 )( + T5 35 ) ) )
(or ( <= ( + T5 156 )  ( + T9 30 ) ) ( <= ( + T9 120 )( + T5 132 ) ) )
(or ( <= ( + T5 178 )  ( + T9 120 ) ) ( <= ( + T9 206 )( + T5 156 ) ) )
(or ( <= ( + T5 211 )  ( + T9 206 ) ) ( <= ( + T9 221 )( + T5 178 ) ) )
(or ( <= ( + T5 247 )  ( + T9 221 ) ) ( <= ( + T9 222 )( + T5 211 ) ) )
(or ( <= ( + T5 307 )  ( + T9 222 ) ) ( <= ( + T9 292 )( + T5 247 ) ) )
(or ( <= ( + T5 392 )  ( + T9 292 ) ) ( <= ( + T9 320 )( + T5 307 ) ) )
(or ( <= ( + T5 35 ) T10 ) ( <= ( + T10 50 ) T5 ) )
(or ( <= ( + T5 132 )  ( + T10 50 ) ) ( <= ( + T10 104 )( + T5 35 ) ) )
(or ( <= ( + T5 156 )  ( + T10 104 ) ) ( <= ( + T10 143 )( + T5 132 ) ) )
(or ( <= ( + T5 178 )  ( + T10 143 ) ) ( <= ( + T10 214 )( + T5 156 ) ) )
(or ( <= ( + T5 211 )  ( + T10 214 ) ) ( <= ( + T10 245 )( + T5 178 ) ) )
(or ( <= ( + T5 247 )  ( + T10 245 ) ) ( <= ( + T10 279 )( + T5 211 ) ) )
(or ( <= ( + T5 307 )  ( + T10 279 ) ) ( <= ( + T10 347 )( + T5 247 ) ) )
(or ( <= ( + T5 392 )  ( + T10 347 ) ) ( <= ( + T10 447 )( + T5 307 ) ) )
(or ( <= ( + T6 13 ) T7 ) ( <= ( + T7 18 ) T6 ) )
(or ( <= ( + T6 63 )  ( + T7 18 ) ) ( <= ( + T7 65 )( + T6 13 ) ) )
(or ( <= ( + T6 96 )  ( + T7 65 ) ) ( <= ( + T7 90 )( + T6 63 ) ) )
(or ( <= ( + T6 156 )  ( + T7 90 ) ) ( <= ( + T7 134 )( + T6 96 ) ) )
(or ( <= ( + T6 226 )  ( + T7 134 ) ) ( <= ( + T7 173 )( + T6 156 ) ) )
(or ( <= ( + T6 304 )  ( + T7 173 ) ) ( <= ( + T7 253 )( + T6 226 ) ) )
(or ( <= ( + T6 348 )  ( + T7 253 ) ) ( <= ( + T7 307 )( + T6 304 ) ) )
(or ( <= ( + T6 394 )  ( + T7 307 ) ) ( <= ( + T7 360 )( + T6 348 ) ) )
(or ( <= ( + T6 13 ) T8 ) ( <= ( + T8 41 ) T6 ) )
(or ( <= ( + T6 63 )  ( + T8 41 ) ) ( <= ( + T8 100 )( + T6 13 ) ) )
(or ( <= ( + T6 96 )  ( + T8 100 ) ) ( <= ( + T8 126 )( + T6 63 ) ) )
(or ( <= ( + T6 156 )  ( + T8 126 ) ) ( <= ( + T8 192 )( + T6 96 ) ) )
(or ( <= ( + T6 226 )  ( + T8 192 ) ) ( <= ( + T8 226 )( + T6 156 ) ) )
(or ( <= ( + T6 304 )  ( + T8 226 ) ) ( <= ( + T8 279 )( + T6 226 ) ) )
(or ( <= ( + T6 348 )  ( + T8 279 ) ) ( <= ( + T8 332 )( + T6 304 ) ) )
(or ( <= ( + T6 394 )  ( + T8 332 ) ) ( <= ( + T8 400 )( + T6 348 ) ) )
(or ( <= ( + T6 13 ) T9 ) ( <= ( + T9 2 ) T6 ) )
(or ( <= ( + T6 63 )  ( + T9 2 ) ) ( <= ( + T9 30 )( + T6 13 ) ) )
(or ( <= ( + T6 96 )  ( + T9 30 ) ) ( <= ( + T9 120 )( + T6 63 ) ) )
(or ( <= ( + T6 156 )  ( + T9 120 ) ) ( <= ( + T9 206 )( + T6 96 ) ) )
(or ( <= ( + T6 226 )  ( + T9 206 ) ) ( <= ( + T9 221 )( + T6 156 ) ) )
(or ( <= ( + T6 304 )  ( + T9 221 ) ) ( <= ( + T9 222 )( + T6 226 ) ) )
(or ( <= ( + T6 348 )  ( + T9 222 ) ) ( <= ( + T9 292 )( + T6 304 ) ) )
(or ( <= ( + T6 394 )  ( + T9 292 ) ) ( <= ( + T9 320 )( + T6 348 ) ) )
(or ( <= ( + T6 13 ) T10 ) ( <= ( + T10 50 ) T6 ) )
(or ( <= ( + T6 63 )  ( + T10 50 ) ) ( <= ( + T10 104 )( + T6 13 ) ) )
(or ( <= ( + T6 96 )  ( + T10 104 ) ) ( <= ( + T10 143 )( + T6 63 ) ) )
(or ( <= ( + T6 156 )  ( + T10 143 ) ) ( <= ( + T10 214 )( + T6 96 ) ) )
(or ( <= ( + T6 226 )  ( + T10 214 ) ) ( <= ( + T10 245 )( + T6 156 ) ) )
(or ( <= ( + T6 304 )  ( + T10 245 ) ) ( <= ( + T10 279 )( + T6 226 ) ) )
(or ( <= ( + T6 348 )  ( + T10 279 ) ) ( <= ( + T10 347 )( + T6 304 ) ) )
(or ( <= ( + T6 394 )  ( + T10 347 ) ) ( <= ( + T10 447 )( + T6 348 ) ) )
(or ( <= ( + T7 18 ) T8 ) ( <= ( + T8 41 ) T7 ) )
(or ( <= ( + T7 65 )  ( + T8 41 ) ) ( <= ( + T8 100 )( + T7 18 ) ) )
(or ( <= ( + T7 90 )  ( + T8 100 ) ) ( <= ( + T8 126 )( + T7 65 ) ) )
(or ( <= ( + T7 134 )  ( + T8 126 ) ) ( <= ( + T8 192 )( + T7 90 ) ) )
(or ( <= ( + T7 173 )  ( + T8 192 ) ) ( <= ( + T8 226 )( + T7 134 ) ) )
(or ( <= ( + T7 253 )  ( + T8 226 ) ) ( <= ( + T8 279 )( + T7 173 ) ) )
(or ( <= ( + T7 307 )  ( + T8 279 ) ) ( <= ( + T8 332 )( + T7 253 ) ) )
(or ( <= ( + T7 360 )  ( + T8 332 ) ) ( <= ( + T8 400 )( + T7 307 ) ) )
(or ( <= ( + T7 18 ) T9 ) ( <= ( + T9 2 ) T7 ) )
(or ( <= ( + T7 65 )  ( + T9 2 ) ) ( <= ( + T9 30 )( + T7 18 ) ) )
(or ( <= ( + T7 90 )  ( + T9 30 ) ) ( <= ( + T9 120 )( + T7 65 ) ) )
(or ( <= ( + T7 134 )  ( + T9 120 ) ) ( <= ( + T9 206 )( + T7 90 ) ) )
(or ( <= ( + T7 173 )  ( + T9 206 ) ) ( <= ( + T9 221 )( + T7 134 ) ) )
(or ( <= ( + T7 253 )  ( + T9 221 ) ) ( <= ( + T9 222 )( + T7 173 ) ) )
(or ( <= ( + T7 307 )  ( + T9 222 ) ) ( <= ( + T9 292 )( + T7 253 ) ) )
(or ( <= ( + T7 360 )  ( + T9 292 ) ) ( <= ( + T9 320 )( + T7 307 ) ) )
(or ( <= ( + T7 18 ) T10 ) ( <= ( + T10 50 ) T7 ) )
(or ( <= ( + T7 65 )  ( + T10 50 ) ) ( <= ( + T10 104 )( + T7 18 ) ) )
(or ( <= ( + T7 90 )  ( + T10 104 ) ) ( <= ( + T10 143 )( + T7 65 ) ) )
(or ( <= ( + T7 134 )  ( + T10 143 ) ) ( <= ( + T10 214 )( + T7 90 ) ) )
(or ( <= ( + T7 173 )  ( + T10 214 ) ) ( <= ( + T10 245 )( + T7 134 ) ) )
(or ( <= ( + T7 253 )  ( + T10 245 ) ) ( <= ( + T10 279 )( + T7 173 ) ) )
(or ( <= ( + T7 307 )  ( + T10 279 ) ) ( <= ( + T10 347 )( + T7 253 ) ) )
(or ( <= ( + T7 360 )  ( + T10 347 ) ) ( <= ( + T10 447 )( + T7 307 ) ) )
(or ( <= ( + T8 41 ) T9 ) ( <= ( + T9 2 ) T8 ) )
(or ( <= ( + T8 100 )  ( + T9 2 ) ) ( <= ( + T9 30 )( + T8 41 ) ) )
(or ( <= ( + T8 126 )  ( + T9 30 ) ) ( <= ( + T9 120 )( + T8 100 ) ) )
(or ( <= ( + T8 192 )  ( + T9 120 ) ) ( <= ( + T9 206 )( + T8 126 ) ) )
(or ( <= ( + T8 226 )  ( + T9 206 ) ) ( <= ( + T9 221 )( + T8 192 ) ) )
(or ( <= ( + T8 279 )  ( + T9 221 ) ) ( <= ( + T9 222 )( + T8 226 ) ) )
(or ( <= ( + T8 332 )  ( + T9 222 ) ) ( <= ( + T9 292 )( + T8 279 ) ) )
(or ( <= ( + T8 400 )  ( + T9 292 ) ) ( <= ( + T9 320 )( + T8 332 ) ) )
(or ( <= ( + T8 41 ) T10 ) ( <= ( + T10 50 ) T8 ) )
(or ( <= ( + T8 100 )  ( + T10 50 ) ) ( <= ( + T10 104 )( + T8 41 ) ) )
(or ( <= ( + T8 126 )  ( + T10 104 ) ) ( <= ( + T10 143 )( + T8 100 ) ) )
(or ( <= ( + T8 192 )  ( + T10 143 ) ) ( <= ( + T10 214 )( + T8 126 ) ) )
(or ( <= ( + T8 226 )  ( + T10 214 ) ) ( <= ( + T10 245 )( + T8 192 ) ) )
(or ( <= ( + T8 279 )  ( + T10 245 ) ) ( <= ( + T10 279 )( + T8 226 ) ) )
(or ( <= ( + T8 332 )  ( + T10 279 ) ) ( <= ( + T10 347 )( + T8 279 ) ) )
(or ( <= ( + T8 400 )  ( + T10 347 ) ) ( <= ( + T10 447 )( + T8 332 ) ) )
(or ( <= ( + T9 2 ) T10 ) ( <= ( + T10 50 ) T9 ) )
(or ( <= ( + T9 30 )  ( + T10 50 ) ) ( <= ( + T10 104 )( + T9 2 ) ) )
(or ( <= ( + T9 120 )  ( + T10 104 ) ) ( <= ( + T10 143 )( + T9 30 ) ) )
(or ( <= ( + T9 206 )  ( + T10 143 ) ) ( <= ( + T10 214 )( + T9 120 ) ) )
(or ( <= ( + T9 221 )  ( + T10 214 ) ) ( <= ( + T10 245 )( + T9 206 ) ) )
(or ( <= ( + T9 222 )  ( + T10 245 ) ) ( <= ( + T10 279 )( + T9 221 ) ) )
(or ( <= ( + T9 292 )  ( + T10 279 ) ) ( <= ( + T10 347 )( + T9 222 ) ) )
(or ( <= ( + T9 320 )  ( + T10 347 ) ) ( <= ( + T10 447 )( + T9 292 ) ) )
( <= ( + T1 353 ) Z)
( <= ( + T2 362 ) Z)
( <= ( + T3 326 ) Z)
( <= ( + T4 266 ) Z)
( <= ( + T5 392 ) Z)
( <= ( + T6 394 ) Z)
( <= ( + T7 360 ) Z)
( <= ( + T8 400 ) Z)
( <= ( + T9 320 ) Z)
( <= ( + T10 447 ) Z)
( >= T1 0 )
( >= T2 0 )
( >= T3 0 )
( >= T4 0 )
( >= T5 0 )
( >= T6 0 )
( >= T7 0 )
( >= T8 0 )
( >= T9 0 )
( >= T10 0 )
) )
)(=> $phi $goal))))